c 1 = x0
c 2 = y0
c 3 = x1
c 4 = y1
p cnf 17 40
-5 1 0
-5 2 0
-1 -2 5 0
-6 -3 0
-6 -4 0
3 4 6 0
-7 5 0
-7 -6 0
-5 6 7 0
-8 3 0
-8 4 0
-3 -4 8 0
-9 3 0
-9 -4 0
-3 4 9 0
-10 -3 0
-10 4 0
3 -4 10 0
-11 -9 0
-11 -10 0
9 10 11 0
-12 5 0
-12 -11 0
-5 11 12 0
-13 -8 0
-13 -12 0
8 12 13 0
-14 7 0
-14 13 0
-7 -13 14 0
-15 -8 0
-15 -7 0
8 7 15 0
-16 12 0
-16 15 0
-12 -15 16 0
-17 -14 0
-17 -16 0
14 16 17 0
-17 0
